benchmarks/VRPTW/TSPTW/solution/n200w20.002.txt.solution
1 33 187 28 39 8 193 48 50 10 6 197 25 153 101 139 22 74 119 125 186 3 158 34 176 92 185 16 183 184 2 72 23 110 67 112 91 17 188 173 71 27 80 180 189 104 106 148 157 140 168 156 89 120 166 123 76 54 68 165 47 172 175 15 116 164 90 129 84 43 86 111 38 81 97 94 7 35 132 135 75 127 45 114 154 12 46 142 117 131 138 146 151 145 199 103 49 196 62 58 192 109 14 87 152 59 32 60 79 190 177 163 93 9 73 182 29 133 144 130 37 126 19 162 171 141 78 136 51 44 122 30 61 70 200 42 170 191 98 181 41 194 36 26 198 113 108 5 121 115 161 63 150 124 137 95 118 66 24 174 64 99 100 69 21 82 134 56 31 169 107 143 85 57 102 88 83 55 65 149 11 160 18 128 52 147 155 13 179 105 195 53 20 178 96 77 40 4 201 159 167 
973
